TCS_Benchmarks/redos_fix/corpus2_output_distinct_4630_4629_16_0.txt
([^.]+)([0-9]+)
([^.]+)(.mc([0-9]{2})[_]?([0-9]{1,2})(TeV)?.)([0-9]+)